(set-option :auto-config false)
(set-option :model true)
(set-option :model.partial false)

(set-option :smt.mbqi false)

(define-sort Str () Int)
(declare-fun strLen (Str) Int)
(declare-fun subString (Str Int Int) Str)
(declare-fun concatString (Str Str) Str)
(define-sort Elt () Int)
(define-sort LSet () (Array Elt Bool))
(define-fun smt_set_emp () LSet ((as const LSet) false))
(define-fun smt_set_mem ((x Elt) (s LSet)) Bool (select s x))
(define-fun smt_set_add ((s LSet) (x Elt)) LSet (store s x true))
(define-fun smt_set_cup ((s1 LSet) (s2 LSet)) LSet ((_ map or) s1 s2))
(define-fun smt_set_cap ((s1 LSet) (s2 LSet)) LSet ((_ map and) s1 s2))
(define-fun smt_set_com ((s LSet)) LSet ((_ map not) s))
(define-fun smt_set_dif ((s1 LSet) (s2 LSet)) LSet (smt_set_cap s1 (smt_set_com s2)))
(define-fun smt_set_sub ((s1 LSet) (s2 LSet)) Bool (= smt_set_emp (smt_set_dif s1 s2)))
(define-sort Map () (Array Elt Elt))
(define-fun smt_map_sel ((m Map) (k Elt)) Elt (select m k))
(define-fun smt_map_sto ((m Map) (k Elt) (v Elt)) Map (store m k v))
(define-fun smt_map_cup ((m1 Map) (m2 Map)) Map ((_ map (+ (Elt Elt) Elt)) m1 m2))
(define-fun smt_map_def ((v Elt)) Map ((as const (Map)) v))
(define-fun bool_to_int ((b Bool)) Int (ite b 1 0))
(define-fun Z3_OP_MUL ((x Int) (y Int)) Int (* x y))
(define-fun Z3_OP_DIV ((x Int) (y Int)) Int (div x y))
(declare-fun i$35$$35$a1yd () Int)
(declare-fun lq_tmp$36$x$35$$35$2643 () Int)
(declare-fun lq_tmp$36$x$35$$35$3374 () Int)
(declare-fun GHC.Base.id () Int)
(declare-fun cast_as_int () Int)
(declare-fun lq_tmp$36$x$35$$35$3213 () Int)
(declare-fun lq_tmp$36$x$35$$35$3356 () Int)
(declare-fun lq_tmp$36$x$35$$35$1992 () Int)
(declare-fun lq_tmp$36$x$35$$35$3437 () Int)
(declare-fun lq_anf$36$$35$$35$7205759403792805368$35$$35$d33O () Int)
(declare-fun lq_tmp$36$x$35$$35$1468 () Int)
(declare-fun lq_anf$36$$35$$35$7205759403792805397$35$$35$d34h () Int)
(declare-fun lq_tmp$36$x$35$$35$3228 () Int)
(declare-fun Linear.group () Int)
(declare-fun x$35$$35$a1ye () Int)
(declare-fun GHC.Real.rem () Int)
(declare-fun GHC.List.init () Int)
(declare-fun Linear.dot () Int)
(declare-fun lq_anf$36$$35$$35$7205759403792805344$35$$35$d33q () Int)
(declare-fun addrLen () Int)
(declare-fun lq_tmp$36$x$35$$35$2100 () Int)
(declare-fun lq_tmp$36$x$35$$35$2122 () Int)
(declare-fun lq_karg$36$j$35$$35$a1yi$35$$35$k_$35$$35$1288 () Int)
(declare-fun papp5 () Int)
(declare-fun GHC.List.iterate () Int)
(declare-fun x_Tuple21 () Int)
(declare-fun ds_d32y () Int)
(declare-fun lq_tmp$36$x$35$$35$2247 () Int)
(declare-fun GHC.Classes.$61$$61$ () Int)
(declare-fun GHC.Types.C$35$ () Int)
(declare-fun GHC.List.drop () Int)
(declare-fun lq_tmp$36$x$35$$35$1089 () Int)
(declare-fun Linear.subtract () Int)
(declare-fun lq_tmp$36$x$35$$35$1933 () Int)
(declare-fun lq_tmp$36$x$35$$35$855 () Int)
(declare-fun Linear.replace () Int)
(declare-fun lq_tmp$36$x$35$$35$1977 () Int)
(declare-fun lq_karg$36$j$35$$35$a1yf$35$$35$k_$35$$35$1226 () Int)
(declare-fun lq_tmp$36$x$35$$35$2277 () Int)
(declare-fun Data.Foldable.length () Int)
(declare-fun x_Tuple33 () Int)
(declare-fun GHC.Types.LT () Int)
(declare-fun lq_tmp$36$x$35$$35$1265 () Int)
(declare-fun VV$35$$35$F$35$$35$188 () Int)
(declare-fun lq_tmp$36$x$35$$35$3193 () Real)
(declare-fun j$35$$35$a1yl () Int)
(declare-fun lq_tmp$36$x$35$$35$880 () Int)
(declare-fun GHC.List.replicate () Int)
(declare-fun GHC.List.zipWith () Int)
(declare-fun lq_tmp$36$x$35$$35$1526 () Int)
(declare-fun lq_tmp$36$x$35$$35$3300 () Int)
(declare-fun fix$36$$36$dNum_a1ES () Int)
(declare-fun lq_tmp$36$x$35$$35$1166 () Int)
(declare-fun GHC.Classes.$62$$61$ () Int)
(declare-fun lq_tmp$36$x$35$$35$2486 () Int)
(declare-fun lq_tmp$36$x$35$$35$1494 () Int)
(declare-fun GHC.Types.F$35$ () Int)
(declare-fun GHC.Num.fromInteger () Int)
(declare-fun papp3 () Int)
(declare-fun lq_tmp$36$x$35$$35$2852 () Real)
(declare-fun lq_tmp$36$x$35$$35$1051 () Int)
(declare-fun GHC.List.span () Int)
(declare-fun Linear.add () Int)
(declare-fun lq_anf$36$$35$$35$7205759403792805388$35$$35$d348 () Int)
(declare-fun lq_tmp$36$x$35$$35$3237 () Int)
(declare-fun lq_tmp$36$x$35$$35$1628 () Int)
(declare-fun lq_tmp$36$x$35$$35$1433 () Int)
(declare-fun GHC.Classes.$62$ () Int)
(declare-fun lq_tmp$36$x$35$$35$3152 () Int)
(declare-fun lq_anf$36$$35$$35$7205759403792805343$35$$35$d33p () Int)
(declare-fun lq_tmp$36$x$35$$35$1015 () Int)
(declare-fun VV$35$$35$F$35$$35$185 () Int)
(declare-fun lq_tmp$36$x$35$$35$3798 () Int)
(declare-fun lq_tmp$36$x$35$$35$1631 () Int)
(declare-fun GHC.Types.False () Bool)
(declare-fun GHC.List.scanr1 () Int)
(declare-fun lq_tmp$36$x$35$$35$3776 () Int)
(declare-fun x$35$$35$a1yc () Int)
(declare-fun lq_karg$36$VV$35$$35$1287$35$$35$k_$35$$35$1288 () Int)
(declare-fun a$35$$35$a1EQ () Int)
(declare-fun GHC.Types.$58$ () Int)
(declare-fun GHC.Real.div () Int)
(declare-fun GHC.List.scanl () Int)
(declare-fun Data.Foldable.mapM_ () Int)
(declare-fun lq_tmp$36$x$35$$35$1865 () Int)
(declare-fun lq_tmp$36$x$35$$35$3867 () Int)
(declare-fun lq_tmp$36$x$35$$35$3944 () Int)
(declare-fun lq_tmp$36$x$35$$35$3966 () Int)
(declare-fun GHC.Tuple.$40$$44$$44$$41$ () Int)
(declare-fun papp4 () Int)
(declare-fun GHC.Types.Module () Int)
(declare-fun GHC.List.zip () Int)
(declare-fun lq_tmp$36$x$35$$35$3584 () Int)
(declare-fun lq_tmp$36$x$35$$35$3180 () Real)
(declare-fun lq_tmp$36$x$35$$35$3375 () Int)
(declare-fun lq_tmp$36$x$35$$35$2220 () Int)
(declare-fun GHC.Tuple.$40$$41$ () Int)
(declare-fun lq_tmp$36$x$35$$35$2707 () Int)
(declare-fun lq_tmp$36$x$35$$35$3212 () Int)
(declare-fun GHC.Types.I$35$ () Int)
(declare-fun ds_d331 () Int)
(declare-fun VV$35$$35$F$35$$35$182 () Int)
(declare-fun lq_tmp$36$x$35$$35$2022 () Int)
(declare-fun GHC.Num.$36$fNumInt () Int)
(declare-fun a$35$$35$a1ym () Int)
(declare-fun j$35$$35$a1yf () Int)
(declare-fun c$35$$35$a1yb () Int)
(declare-fun fix$36$$36$dShow_a1CG () Int)
(declare-fun lq_tmp$36$x$35$$35$3194 () Int)
(declare-fun GHC.Float.$36$fNumFloat () Int)
(declare-fun lq_tmp$36$x$35$$35$766 () Int)
(declare-fun lq_tmp$36$x$35$$35$3703 () Int)
(declare-fun lq_tmp$36$x$35$$35$3105 () Int)
(declare-fun GHC.List.dropWhile () Int)
(declare-fun lq_tmp$36$x$35$$35$968 () Int)
(declare-fun a$35$$35$a1Fg () Int)
(declare-fun lq_tmp$36$x$35$$35$3206 () Int)
(declare-fun lq_tmp$36$x$35$$35$3518 () Int)
(declare-fun lq_tmp$36$x$35$$35$2713 () Int)
(declare-fun a$35$$35$a1F7 () Int)
(declare-fun Data.Foldable.sum () Int)
(declare-fun autolen () Int)
(declare-fun lq_anf$36$$35$$35$7205759403792805399$35$$35$d34j () Int)
(declare-fun Linear.dimensions () Int)
(declare-fun lq_tmp$36$x$35$$35$1565 () Int)
(declare-fun fix$36$$36$dShow_a1Cw () Int)
(declare-fun lq_karg$36$x$35$$35$a1yg$35$$35$k_$35$$35$1288 () Int)
(declare-fun GHC.Integer.Type.$36$WJn$35$ () Int)
(declare-fun GHC.Real.$94$ () Int)
(declare-fun head () Int)
(declare-fun GHC.Real.mod () Int)
(declare-fun lq_tmp$36$x$35$$35$1970 () Int)
(declare-fun lit$36$Linear () Str)
(declare-fun i$35$$35$a1yh () Int)
(declare-fun Linear.transpose () Int)
(declare-fun lq_tmp$36$x$35$$35$2805 () Real)
(declare-fun lq_tmp$36$x$35$$35$3878 () Int)
(declare-fun lq_tmp$36$x$35$$35$1713 () Int)
(declare-fun lq_tmp$36$x$35$$35$1629 () Int)
(declare-fun lq_tmp$36$x$35$$35$1115 () Int)
(declare-fun lq_tmp$36$x$35$$35$3249 () Int)
(declare-fun Linear.dimension () Int)
(declare-fun lq_tmp$36$x$35$$35$1173 () Int)
(declare-fun lq_tmp$36$x$35$$35$2402 () Int)
(declare-fun lq_tmp$36$x$35$$35$1014 () Int)
(declare-fun lq_tmp$36$x$35$$35$1630 () Int)
(declare-fun GHC.Real.divMod () Int)
(declare-fun lq_tmp$36$x$35$$35$3799 () Int)
(declare-fun pos$35$$35$a1yn () Int)
(declare-fun GHC.Integer.Type.Jn$35$ () Int)
(declare-fun Linear.scale () Int)
(declare-fun GHC.Classes.compare () Int)
(declare-fun lq_tmp$36$x$35$$35$2718 () Int)
(declare-fun lq_tmp$36$x$35$$35$3348 () Int)
(declare-fun x$35$$35$a1yr () Int)
(declare-fun lq_tmp$36$x$35$$35$2107 () Int)
(declare-fun lq_tmp$36$x$35$$35$3861 () Int)
(declare-fun lq_tmp$36$x$35$$35$1498 () Int)
(declare-fun papp2 () Int)
(declare-fun lq_tmp$36$x$35$$35$1599 () Int)
(declare-fun GHC.Real.toInteger () Int)
(declare-fun GHC.Real.quotRem () Int)
(declare-fun lq_tmp$36$x$35$$35$1827 () Int)
(declare-fun lq_tmp$36$x$35$$35$3938 () Int)
(declare-fun GHC.Stack.Types.EmptyCallStack () Int)
(declare-fun lq_karg$36$i$35$$35$a1yh$35$$35$k_$35$$35$1288 () Int)
(declare-fun lq_tmp$36$x$35$$35$1787 () Int)
(declare-fun lq_tmp$36$x$35$$35$1329 () Int)
(declare-fun lq_tmp$36$x$35$$35$2560 () Int)
(declare-fun lq_tmp$36$x$35$$35$1228 () Int)
(declare-fun GHC.List.reverse () Int)
(declare-fun GHC.Integer.Type.$36$WJp$35$ () Int)
(declare-fun VV$35$$35$F$35$$35$181 () Int)
(declare-fun lq_tmp$36$x$35$$35$2021 () Int)
(declare-fun lit$36$main () Str)
(declare-fun lq_tmp$36$x$35$$35$3057 () Real)
(declare-fun lq_rnm$36$fldList$35$$35$692 () Int)
(declare-fun Linear.columns () Int)
(declare-fun GHC.List.filter () Int)
(declare-fun lq_tmp$36$x$35$$35$3552 () Int)
(declare-fun x$35$$35$a1yg () Int)
(declare-fun lq_tmp$36$x$35$$35$966 () Int)
(declare-fun lq_tmp$36$x$35$$35$1668 () Int)
(declare-fun lq_tmp$36$x$35$$35$3736 () Int)
(declare-fun fromJust () Int)
(declare-fun lq_tmp$36$x$35$$35$2762 () Real)
(declare-fun lq_tmp$36$x$35$$35$3028 () Int)
(declare-fun GHC.List.cycle () Int)
(declare-fun GHC.List.$33$$33$ () Int)
(declare-fun GHC.List.tail () Int)
(declare-fun lq_tmp$36$x$35$$35$1330 () Int)
(declare-fun lq_tmp$36$x$35$$35$1356 () Int)
(declare-fun lq_tmp$36$x$35$$35$1484 () Int)
(declare-fun papp7 () Int)
(declare-fun GHC.Classes.$47$$61$ () Int)
(declare-fun lq_tmp$36$x$35$$35$2480 () Int)
(declare-fun GHC.Enum.enumFromTo () Int)
(declare-fun lq_tmp$36$x$35$$35$1887 () Int)
(declare-fun lq_tmp$36$x$35$$35$2859 () Int)
(declare-fun GHC.List.break () Int)
(declare-fun GHC.Types.True () Bool)
(declare-fun lq_anf$36$$35$$35$7205759403792805371$35$$35$d33R () Int)
(declare-fun lq_anf$36$$35$$35$7205759403792805327$35$$35$d339 () Int)
(declare-fun lq_tmp$36$x$35$$35$3872 () Int)
(declare-fun ds_d31O () Int)
(declare-fun GHC.Types.$91$$93$ () Int)
(declare-fun GHC.List.splitAt () Int)
(declare-fun lq_anf$36$$35$$35$7205759403792805375$35$$35$d33V () Int)
(declare-fun lq_tmp$36$x$35$$35$3591 () Int)
(declare-fun GHC.Base.$43$$43$ () Int)
(declare-fun lq_tmp$36$x$35$$35$3195 () Real)
(declare-fun GHC.Real.$58$$37$ () Int)
(declare-fun lq_tmp$36$x$35$$35$767 () Int)
(declare-fun lq_tmp$36$x$35$$35$3702 () Int)
(declare-fun lq_anf$36$$35$$35$7205759403792805332$35$$35$d33e () Int)
(declare-fun GHC.Tuple.$40$$44$$41$ () Int)
(declare-fun lq_tmp$36$x$35$$35$2387 () Int)
(declare-fun VV$35$$35$F$35$$35$179 () Int)
(declare-fun lq_tmp$36$x$35$$35$2235 () Int)
(declare-fun lq_tmp$36$x$35$$35$1106 () Int)
(declare-fun lq_tmp$36$x$35$$35$3207 () Int)
(declare-fun GHC.Real.quot () Int)
(declare-fun GHC.Real.$47$ () Int)
(declare-fun lq_tmp$36$x$35$$35$1662 () Int)
(declare-fun lq_tmp$36$x$35$$35$3365 () Int)
(declare-fun fldList () Int)
(declare-fun lq_tmp$36$x$35$$35$2515 () Int)
(declare-fun lq_tmp$36$x$35$$35$1165 () Int)
(declare-fun GHC.Classes.$38$$38$ () Int)
(declare-fun lq_anf$36$$35$$35$7205759403792805329$35$$35$d33b () Int)
(declare-fun lq_tmp$36$x$35$$35$1497 () Int)
(declare-fun lq_anf$36$$35$$35$7205759403792805348$35$$35$d33u () Int)
(declare-fun VV$35$$35$F$35$$35$103 () Int)
(declare-fun Linear.generate_matrix () Int)
(declare-fun GHC.Base.$36$fMonadIO () Int)
(declare-fun Data.Foldable.$36$fFoldable$91$$93$ () Int)
(declare-fun lq_tmp$36$x$35$$35$3624 () Int)
(declare-fun Linear.show_matrix () Int)
(declare-fun lq_tmp$36$x$35$$35$1828 () Int)
(declare-fun GHC.Show.show () Int)
(declare-fun GHC.Types.GT () Int)
(declare-fun GHC.Classes.C$58$IP () Int)
(declare-fun lq_tmp$36$x$35$$35$3246 () Int)
(declare-fun GHC.Classes.$124$$124$ () Int)
(declare-fun VV$35$$35$F$35$$35$192 () Int)
(declare-fun lq_tmp$36$x$35$$35$1222 () Int)
(declare-fun lq_tmp$36$x$35$$35$2845 () Int)
(declare-fun Data.Either.Left () Int)
(declare-fun GHC.List.last () Int)
(declare-fun lq_anf$36$$35$$35$7205759403792805342$35$$35$d33o () Int)
(declare-fun lq_tmp$36$x$35$$35$928 () Int)
(declare-fun lq_tmp$36$x$35$$35$3220 () Int)
(declare-fun GHC.Integer.Type.S$35$ () Int)
(declare-fun lq_karg$36$VV$35$$35$1176$35$$35$k_$35$$35$1177 () Int)
(declare-fun GHC.List.scanl1 () Int)
(declare-fun y$35$$35$a1yG () Int)
(declare-fun Data.Either.Right () Int)
(declare-fun lq_tmp$36$x$35$$35$3553 () Int)
(declare-fun lq_tmp$36$x$35$$35$3892 () Int)
(declare-fun Linear.multiply () Int)
(declare-fun VV$35$$35$F$35$$35$155 () Int)
(declare-fun lq_tmp$36$x$35$$35$967 () Int)
(declare-fun lq_tmp$36$x$35$$35$1108 () Int)
(declare-fun lq_tmp$36$x$35$$35$3737 () Int)
(declare-fun lq_tmp$36$x$35$$35$3209 () Int)
(declare-fun fix$36$$36$dNum_a1F0 () Int)
(declare-fun lq_tmp$36$x$35$$35$3517 () Int)
(declare-fun lq_tmp$36$x$35$$35$1331 () Int)
(declare-fun GHC.Num.$45$ () Int)
(declare-fun len () Int)
(declare-fun papp6 () Int)
(declare-fun GHC.Base.. () Int)
(declare-fun x_Tuple22 () Int)
(declare-fun lq_tmp$36$x$35$$35$1256 () Int)
(declare-fun x$35$$35$a1yF () Int)
(declare-fun lq_tmp$36$x$35$$35$1786 () Int)
(declare-fun lq_tmp$36$x$35$$35$3377 () Int)
(declare-fun lq_tmp$36$x$35$$35$3210 () Int)
(declare-fun lq_tmp$36$x$35$$35$1141 () Int)
(declare-fun VV$35$$35$F$35$$35$194 () Int)
(declare-fun lq_tmp$36$x$35$$35$1242 () Int)
(declare-fun lq_tmp$36$x$35$$35$2250 () Int)
(declare-fun Linear.setValue () Int)
(declare-fun lq_tmp$36$x$35$$35$1158 () Int)
(declare-fun lq_anf$36$$35$$35$7205759403792805367$35$$35$d33N () Int)
(declare-fun GHC.Real.$36$W$58$$37$ () Int)
(declare-fun lq_tmp$36$x$35$$35$814 () Int)
(declare-fun lq_tmp$36$x$35$$35$1639 () Int)
(declare-fun lq_tmp$36$x$35$$35$3666 () Int)
(declare-fun j$35$$35$a1yi () Int)
(declare-fun lq_anf$36$$35$$35$7205759403792805394$35$$35$d34e () Int)
(declare-fun lq_tmp$36$x$35$$35$2755 () Int)
(declare-fun lq_anf$36$$35$$35$7205759403792805369$35$$35$d33P () Int)
(declare-fun lq_anf$36$$35$$35$7205759403792805361$35$$35$d33H () Int)
(declare-fun GHC.Real.fromRational () Int)
(declare-fun isJust () Int)
(declare-fun lq_tmp$36$x$35$$35$2513 () Int)
(declare-fun Linear.rows () Int)
(declare-fun lq_tmp$36$x$35$$35$2135 () Int)
(declare-fun GHC.List.takeWhile () Int)
(declare-fun GHC.Types.TrNameD () Int)
(declare-fun lq_tmp$36$x$35$$35$2896 () Int)
(declare-fun lq_tmp$36$x$35$$35$3625 () Int)
(declare-fun ds_d31K () Int)
(declare-fun lq_tmp$36$x$35$$35$3247 () Int)
(declare-fun lq_anf$36$$35$$35$7205759403792805356$35$$35$d33C () Int)
(declare-fun lq_tmp$36$x$35$$35$1627 () Int)
(declare-fun x_Tuple31 () Int)
(declare-fun GHC.Integer.Type.Jp$35$ () Int)
(declare-fun lq_tmp$36$x$35$$35$813 () Int)
(declare-fun lq_tmp$36$x$35$$35$1740 () Int)
(declare-fun lq_tmp$36$x$35$$35$2770 () Real)
(declare-fun lq_anf$36$$35$$35$7205759403792805354$35$$35$d33A () Int)
(declare-fun lq_tmp$36$x$35$$35$929 () Int)
(declare-fun lq_tmp$36$x$35$$35$1641 () Int)
(declare-fun GHC.IO.Exception.IOError () Int)
(declare-fun lq_tmp$36$x$35$$35$882 () Int)
(declare-fun lq_tmp$36$x$35$$35$2473 () Int)
(declare-fun Linear.column () Int)
(declare-fun a$35$$35$a1EY () Int)
(declare-fun lq_tmp$36$x$35$$35$2769 () Int)
(declare-fun GHC.List.take () Int)
(declare-fun GHC.Stack.Types.PushCallStack () Int)
(declare-fun lq_tmp$36$x$35$$35$2514 () Int)
(declare-fun lq_tmp$36$x$35$$35$1605 () Int)
(declare-fun lq_tmp$36$x$35$$35$2617 () Int)
(declare-fun lq_tmp$36$x$35$$35$1407 () Int)
(declare-fun lq_tmp$36$x$35$$35$2549 () Int)
(declare-fun lq_tmp$36$x$35$$35$2213 () Int)
(declare-fun lq_tmp$36$x$35$$35$1319 () Int)
(declare-fun GHC.Classes.$60$$61$ () Int)
(declare-fun GHC.Types.TrNameS () Int)
(declare-fun lq_tmp$36$x$35$$35$1290 () Int)
(declare-fun lq_anf$36$$35$$35$7205759403792805330$35$$35$d33c () Int)
(declare-fun lq_tmp$36$x$35$$35$2176 () Int)
(declare-fun GHC.Enum.C$58$Bounded () Int)
(declare-fun GHC.Enum.$36$fEnumInt () Int)
(declare-fun System.IO.putStrLn () Int)
(declare-fun GHC.Base.map () Int)
(declare-fun GHC.Base.$36$ () Int)
(declare-fun papp1 () Int)
(declare-fun lq_tmp$36$x$35$$35$2342 () Int)
(declare-fun lq_tmp$36$x$35$$35$1284 () Int)
(declare-fun p$35$$35$a1yy () Int)
(declare-fun GHC.Classes.max () Int)
(declare-fun lq_tmp$36$x$35$$35$2063 () Int)
(declare-fun lq_tmp$36$x$35$$35$1116 () Int)
(declare-fun GHC.Classes.$60$ () Int)
(declare-fun tail () Int)
(declare-fun GHC.Show.$36$fShow$91$$93$ () Int)
(declare-fun GHC.Stack.Types.FreezeCallStack () Int)
(declare-fun lq_karg$36$j$35$$35$a1yf$35$$35$k_$35$$35$1177 () Int)
(declare-fun GHC.Num.$42$ () Int)
(declare-fun lq_anf$36$$35$$35$7205759403792805372$35$$35$d33S () Int)
(declare-fun lq_tmp$36$x$35$$35$2134 () Int)
(declare-fun GHC.Real.recip () Int)
(declare-fun lq_tmp$36$x$35$$35$2248 () Int)
(declare-fun lq_tmp$36$x$35$$35$1872 () Int)
(declare-fun i$35$$35$a1yk () Int)
(declare-fun lq_anf$36$$35$$35$7205759403792805331$35$$35$d33d () Int)
(declare-fun GHC.Maybe.Nothing () Int)
(declare-fun lq_anf$36$$35$$35$7205759403792805333$35$$35$d33f () Int)
(declare-fun lq_tmp$36$x$35$$35$2251 () Int)
(declare-fun z$35$$35$a1yH () Real)
(declare-fun lq_tmp$36$x$35$$35$3438 () Int)
(declare-fun a$35$$35$a1Ft () Int)
(declare-fun lq_tmp$36$x$35$$35$2860 () Real)
(declare-fun lq_anf$36$$35$$35$7205759403792805357$35$$35$d33D () Int)
(declare-fun lq_tmp$36$x$35$$35$1638 () Int)
(declare-fun lq_tmp$36$x$35$$35$3667 () Int)
(declare-fun GHC.Types.EQ () Int)
(declare-fun lq_tmp$36$x$35$$35$1467 () Int)
(declare-fun GHC.List.scanr () Int)
(declare-fun Linear.getValue () Int)
(declare-fun lq_tmp$36$x$35$$35$881 () Int)
(declare-fun lq_tmp$36$x$35$$35$1440 () Int)
(declare-fun lq_tmp$36$x$35$$35$1527 () Int)
(declare-fun lq_tmp$36$x$35$$35$2380 () Int)
(declare-fun GHC.Num.negate () Int)
(declare-fun lq_tmp$36$x$35$$35$1707 () Int)
(declare-fun fix$36$$36$dNum_a1Fi () Int)
(declare-fun GHC.Real.fromIntegral () Int)
(declare-fun lq_tmp$36$x$35$$35$2748 () Real)
(declare-fun fix$36$$36$dNum_a1F9 () Int)
(declare-fun GHC.Maybe.Just () Int)
(declare-fun lq_tmp$36$x$35$$35$1495 () Int)
(declare-fun lq_tmp$36$x$35$$35$1338 () Int)
(declare-fun lq_tmp$36$x$35$$35$2175 () Int)
(declare-fun GHC.Classes.min () Int)
(declare-fun GHC.List.head () Int)
(declare-fun lq_tmp$36$x$35$$35$1190 () Int)
(declare-fun lq_tmp$36$x$35$$35$1932 () Int)
(declare-fun lq_tmp$36$x$35$$35$1118 () Int)
(declare-fun lq_tmp$36$x$35$$35$2276 () Int)
(declare-fun x_Tuple32 () Int)
(declare-fun lq_tmp$36$x$35$$35$1264 () Int)
(declare-fun lq_karg$36$VV$35$$35$1225$35$$35$k_$35$$35$1226 () Int)
(declare-fun lq_karg$36$x$35$$35$a1ye$35$$35$k_$35$$35$1226 () Int)
(declare-fun ds_d318 () Int)
(declare-fun ds_d335 () Int)
(declare-fun lq_tmp$36$x$35$$35$3050 () Real)
(declare-fun ds_d317 () Int)
(declare-fun fix$36$$36$dNum_a1Fv () Int)
(declare-fun lq_tmp$36$x$35$$35$1632 () Int)
(declare-fun GHC.List.repeat () Int)
(declare-fun lq_tmp$36$x$35$$35$1135 () Int)
(declare-fun lq_tmp$36$x$35$$35$1777 () Int)
(declare-fun lq_tmp$36$x$35$$35$2747 () Real)
(declare-fun GHC.Classes.not () Int)
(declare-fun lq_tmp$36$x$35$$35$1168 () Int)
(declare-fun lq_anf$36$$35$$35$7205759403792805351$35$$35$d33x () Int)
(declare-fun lq_tmp$36$x$35$$35$1337 () Int)
(declare-fun GHC.Num.$43$ () Int)
(declare-fun Data.Tuple.fst () Int)
(declare-fun lq_tmp$36$x$35$$35$2343 () Int)
(declare-fun Linear.row () Int)
(declare-fun lq_tmp$36$x$35$$35$1052 () Int)
(declare-fun lq_karg$36$x$35$$35$a1ye$35$$35$k_$35$$35$1177 () Int)
(declare-fun GHC.Err.error () Int)
(declare-fun lq_tmp$36$x$35$$35$2062 () Int)
(declare-fun GHC.Real.$36$fIntegralInt () Int)
(declare-fun snd () Int)
(declare-fun fst () Int)
(declare-fun newVal$35$$35$a1yo () Int)
(declare-fun Data.Tuple.snd () Int)
(declare-fun apply$35$$35$21 (Int (_ BitVec 32)) Bool)
(declare-fun apply$35$$35$16 (Int Str) Bool)
(declare-fun apply$35$$35$8 (Int Bool) Str)
(declare-fun apply$35$$35$19 (Int Str) (_ BitVec 32))
(declare-fun apply$35$$35$12 (Int Real) Real)
(declare-fun apply$35$$35$24 (Int (_ BitVec 32)) (_ BitVec 32))
(declare-fun apply$35$$35$0 (Int Int) Int)
(declare-fun apply$35$$35$7 (Int Bool) Real)
(declare-fun apply$35$$35$15 (Int Str) Int)
(declare-fun apply$35$$35$1 (Int Int) Bool)
(declare-fun apply$35$$35$13 (Int Real) Str)
(declare-fun apply$35$$35$14 (Int Real) (_ BitVec 32))
(declare-fun apply$35$$35$22 (Int (_ BitVec 32)) Real)
(declare-fun apply$35$$35$9 (Int Bool) (_ BitVec 32))
(declare-fun apply$35$$35$2 (Int Int) Real)
(declare-fun apply$35$$35$10 (Int Real) Int)
(declare-fun apply$35$$35$23 (Int (_ BitVec 32)) Str)
(declare-fun apply$35$$35$18 (Int Str) Str)
(declare-fun apply$35$$35$6 (Int Bool) Bool)
(declare-fun apply$35$$35$11 (Int Real) Bool)
(declare-fun apply$35$$35$3 (Int Int) Str)
(declare-fun apply$35$$35$20 (Int (_ BitVec 32)) Int)
(declare-fun apply$35$$35$4 (Int Int) (_ BitVec 32))
(declare-fun apply$35$$35$5 (Int Bool) Int)
(declare-fun apply$35$$35$17 (Int Str) Real)
(declare-fun coerce$35$$35$21 ((_ BitVec 32)) Bool)
(declare-fun coerce$35$$35$16 (Str) Bool)
(declare-fun coerce$35$$35$8 (Bool) Str)
(declare-fun coerce$35$$35$19 (Str) (_ BitVec 32))
(declare-fun coerce$35$$35$12 (Real) Real)
(declare-fun coerce$35$$35$24 ((_ BitVec 32)) (_ BitVec 32))
(declare-fun coerce$35$$35$0 (Int) Int)
(declare-fun coerce$35$$35$7 (Bool) Real)
(declare-fun coerce$35$$35$15 (Str) Int)
(declare-fun coerce$35$$35$1 (Int) Bool)
(declare-fun coerce$35$$35$13 (Real) Str)
(declare-fun coerce$35$$35$14 (Real) (_ BitVec 32))
(declare-fun coerce$35$$35$22 ((_ BitVec 32)) Real)
(declare-fun coerce$35$$35$9 (Bool) (_ BitVec 32))
(declare-fun coerce$35$$35$2 (Int) Real)
(declare-fun coerce$35$$35$10 (Real) Int)
(declare-fun coerce$35$$35$23 ((_ BitVec 32)) Str)
(declare-fun coerce$35$$35$18 (Str) Str)
(declare-fun coerce$35$$35$6 (Bool) Bool)
(declare-fun coerce$35$$35$11 (Real) Bool)
(declare-fun coerce$35$$35$3 (Int) Str)
(declare-fun coerce$35$$35$20 ((_ BitVec 32)) Int)
(declare-fun coerce$35$$35$4 (Int) (_ BitVec 32))
(declare-fun coerce$35$$35$5 (Bool) Int)
(declare-fun coerce$35$$35$17 (Str) Real)
(declare-fun smt_lambda$35$$35$21 ((_ BitVec 32) Bool) Int)
(declare-fun smt_lambda$35$$35$16 (Str Bool) Int)
(declare-fun smt_lambda$35$$35$8 (Bool Str) Int)
(declare-fun smt_lambda$35$$35$19 (Str (_ BitVec 32)) Int)
(declare-fun smt_lambda$35$$35$12 (Real Real) Int)
(declare-fun smt_lambda$35$$35$24 ((_ BitVec 32) (_ BitVec 32)) Int)
(declare-fun smt_lambda$35$$35$0 (Int Int) Int)
(declare-fun smt_lambda$35$$35$7 (Bool Real) Int)
(declare-fun smt_lambda$35$$35$15 (Str Int) Int)
(declare-fun smt_lambda$35$$35$1 (Int Bool) Int)
(declare-fun smt_lambda$35$$35$13 (Real Str) Int)
(declare-fun smt_lambda$35$$35$14 (Real (_ BitVec 32)) Int)
(declare-fun smt_lambda$35$$35$22 ((_ BitVec 32) Real) Int)
(declare-fun smt_lambda$35$$35$9 (Bool (_ BitVec 32)) Int)
(declare-fun smt_lambda$35$$35$2 (Int Real) Int)
(declare-fun smt_lambda$35$$35$10 (Real Int) Int)
(declare-fun smt_lambda$35$$35$23 ((_ BitVec 32) Str) Int)
(declare-fun smt_lambda$35$$35$18 (Str Str) Int)
(declare-fun smt_lambda$35$$35$6 (Bool Bool) Int)
(declare-fun smt_lambda$35$$35$11 (Real Bool) Int)
(declare-fun smt_lambda$35$$35$3 (Int Str) Int)
(declare-fun smt_lambda$35$$35$20 ((_ BitVec 32) Int) Int)
(declare-fun smt_lambda$35$$35$4 (Int (_ BitVec 32)) Int)
(declare-fun smt_lambda$35$$35$5 (Bool Int) Int)
(declare-fun smt_lambda$35$$35$17 (Str Real) Int)
(declare-fun lam_arg$35$$35$1$35$$35$0 () Int)
(declare-fun lam_arg$35$$35$2$35$$35$0 () Int)
(declare-fun lam_arg$35$$35$3$35$$35$0 () Int)
(declare-fun lam_arg$35$$35$4$35$$35$0 () Int)
(declare-fun lam_arg$35$$35$5$35$$35$0 () Int)
(declare-fun lam_arg$35$$35$6$35$$35$0 () Int)
(declare-fun lam_arg$35$$35$7$35$$35$0 () Int)
(declare-fun lam_arg$35$$35$1$35$$35$15 () Str)
(declare-fun lam_arg$35$$35$2$35$$35$15 () Str)
(declare-fun lam_arg$35$$35$3$35$$35$15 () Str)
(declare-fun lam_arg$35$$35$4$35$$35$15 () Str)
(declare-fun lam_arg$35$$35$5$35$$35$15 () Str)
(declare-fun lam_arg$35$$35$6$35$$35$15 () Str)
(declare-fun lam_arg$35$$35$7$35$$35$15 () Str)
(declare-fun lam_arg$35$$35$1$35$$35$10 () Real)
(declare-fun lam_arg$35$$35$2$35$$35$10 () Real)
(declare-fun lam_arg$35$$35$3$35$$35$10 () Real)
(declare-fun lam_arg$35$$35$4$35$$35$10 () Real)
(declare-fun lam_arg$35$$35$5$35$$35$10 () Real)
(declare-fun lam_arg$35$$35$6$35$$35$10 () Real)
(declare-fun lam_arg$35$$35$7$35$$35$10 () Real)
(declare-fun lam_arg$35$$35$1$35$$35$20 () (_ BitVec 32))
(declare-fun lam_arg$35$$35$2$35$$35$20 () (_ BitVec 32))
(declare-fun lam_arg$35$$35$3$35$$35$20 () (_ BitVec 32))
(declare-fun lam_arg$35$$35$4$35$$35$20 () (_ BitVec 32))
(declare-fun lam_arg$35$$35$5$35$$35$20 () (_ BitVec 32))
(declare-fun lam_arg$35$$35$6$35$$35$20 () (_ BitVec 32))
(declare-fun lam_arg$35$$35$7$35$$35$20 () (_ BitVec 32))
(declare-fun lam_arg$35$$35$1$35$$35$5 () Bool)
(declare-fun lam_arg$35$$35$2$35$$35$5 () Bool)
(declare-fun lam_arg$35$$35$3$35$$35$5 () Bool)
(declare-fun lam_arg$35$$35$4$35$$35$5 () Bool)
(declare-fun lam_arg$35$$35$5$35$$35$5 () Bool)
(declare-fun lam_arg$35$$35$6$35$$35$5 () Bool)
(declare-fun lam_arg$35$$35$7$35$$35$5 () Bool)




(assert (distinct lit$36$main lit$36$Linear))



(assert (distinct GHC.Types.True GHC.Types.False))

(assert (distinct GHC.Types.EQ GHC.Types.GT GHC.Types.LT))
(assert (= (strLen lit$36$Linear) 6))
(assert (= (strLen lit$36$main) 4))
(push 1)
(assert (and (exists ((lq_karg$36$VV$35$$35$1176$35$$35$k_$35$$35$1177 Int) (lq_karg$36$j$35$$35$a1yf$35$$35$k_$35$$35$1177 Int) (VV$35$$35$1176 Int) (lq_karg$36$x$35$$35$a1ye$35$$35$k_$35$$35$1177 Int)) (and (and (= lq_karg$36$VV$35$$35$1176$35$$35$k_$35$$35$1177 ds_d32y) (= lq_karg$36$j$35$$35$a1yf$35$$35$k_$35$$35$1177 j$35$$35$a1yf) (= VV$35$$35$1176 ds_d32y) (= lq_karg$36$x$35$$35$a1ye$35$$35$k_$35$$35$1177 x$35$$35$a1ye)) (exists ((VV$35$$35$F$35$$35$188 Int) (lq_anf$36$$35$$35$7205759403792805332$35$$35$d33e Int)) (and (and (exists ((lq_karg$36$j$35$$35$a1yf$35$$35$k_$35$$35$1226 Int) (lq_karg$36$VV$35$$35$1225$35$$35$k_$35$$35$1226 Int) (lq_karg$36$x$35$$35$a1ye$35$$35$k_$35$$35$1226 Int)) (and (and (= lq_karg$36$j$35$$35$a1yf$35$$35$k_$35$$35$1226 j$35$$35$a1yf) (= lq_karg$36$VV$35$$35$1225$35$$35$k_$35$$35$1226 VV$35$$35$F$35$$35$188) (= lq_karg$36$x$35$$35$a1ye$35$$35$k_$35$$35$1226 x$35$$35$a1ye)) (exists ((VV$35$$35$F$35$$35$185 Int)) (and (>= (apply$35$$35$0 (as len Int) VV$35$$35$F$35$$35$185) 0) (and (= lq_karg$36$j$35$$35$a1yf$35$$35$k_$35$$35$1226 j$35$$35$a1yf) (= lq_karg$36$VV$35$$35$1225$35$$35$k_$35$$35$1226 VV$35$$35$F$35$$35$185) (= lq_karg$36$x$35$$35$a1ye$35$$35$k_$35$$35$1226 x$35$$35$a1ye)))))) (>= (apply$35$$35$0 (as len Int) VV$35$$35$F$35$$35$188) 0)) (and (= lq_karg$36$VV$35$$35$1176$35$$35$k_$35$$35$1177 VV$35$$35$F$35$$35$188) (= lq_karg$36$j$35$$35$a1yf$35$$35$k_$35$$35$1177 j$35$$35$a1yf) (= lq_karg$36$x$35$$35$a1ye$35$$35$k_$35$$35$1177 x$35$$35$a1ye)))))) (not GHC.Types.False) (>= (apply$35$$35$0 (as len Int) x$35$$35$a1ye) 0) (>= (apply$35$$35$0 (as len Int) ds_d32y) 0) GHC.Types.True (= VV$35$$35$F$35$$35$192 j$35$$35$a1yf)))
(push 1)
(assert (not (and (<= 0 VV$35$$35$F$35$$35$192) (< VV$35$$35$F$35$$35$192 (apply$35$$35$0 (as len Int) ds_d32y)))))
(check-sat)
; SMT Says: Sat
(pop 1)
(pop 1)
(push 1)
(assert (and (not GHC.Types.False) GHC.Types.True (= VV$35$$35$F$35$$35$194 i$35$$35$a1yd) (>= (apply$35$$35$0 (as len Int) x$35$$35$a1yc) 0)))
(push 1)
(assert (not (and (<= 0 VV$35$$35$F$35$$35$194) (< VV$35$$35$F$35$$35$194 (apply$35$$35$0 (as len Int) x$35$$35$a1yc)))))
(check-sat)
; SMT Says: Sat
(pop 1)
(pop 1)
(push 1)
(assert (and (exists ((lq_karg$36$j$35$$35$a1yi$35$$35$k_$35$$35$1288 Int) (lq_tmp$36$x$35$$35$1292 Int) (lq_karg$36$VV$35$$35$1287$35$$35$k_$35$$35$1288 Int) (lq_karg$36$x$35$$35$a1yg$35$$35$k_$35$$35$1288 Int) (lq_karg$36$i$35$$35$a1yh$35$$35$k_$35$$35$1288 Int)) (and (and (= lq_karg$36$j$35$$35$a1yi$35$$35$k_$35$$35$1288 j$35$$35$a1yi) (= lq_tmp$36$x$35$$35$1292 lq_anf$36$$35$$35$7205759403792805333$35$$35$d33f) (= lq_karg$36$VV$35$$35$1287$35$$35$k_$35$$35$1288 lq_anf$36$$35$$35$7205759403792805333$35$$35$d33f) (= lq_karg$36$x$35$$35$a1yg$35$$35$k_$35$$35$1288 x$35$$35$a1yg) (= lq_karg$36$i$35$$35$a1yh$35$$35$k_$35$$35$1288 i$35$$35$a1yh)) (exists ((VV$35$$35$F$35$$35$182 Int)) (and (>= (apply$35$$35$0 (as len Int) VV$35$$35$F$35$$35$182) 0) (and (= lq_karg$36$j$35$$35$a1yi$35$$35$k_$35$$35$1288 j$35$$35$a1yi) (= lq_karg$36$VV$35$$35$1287$35$$35$k_$35$$35$1288 VV$35$$35$F$35$$35$182) (= lq_karg$36$x$35$$35$a1yg$35$$35$k_$35$$35$1288 x$35$$35$a1yg) (= lq_karg$36$i$35$$35$a1yh$35$$35$k_$35$$35$1288 i$35$$35$a1yh)))))) (not GHC.Types.False) GHC.Types.True (>= (apply$35$$35$0 (as len Int) x$35$$35$a1yg) 0) (>= (apply$35$$35$0 (as len Int) lq_anf$36$$35$$35$7205759403792805333$35$$35$d33f) 0) (= VV$35$$35$F$35$$35$179 j$35$$35$a1yi)))
(push 1)
(assert (not (and (<= 0 VV$35$$35$F$35$$35$179) (< VV$35$$35$F$35$$35$179 (apply$35$$35$0 (as len Int) lq_anf$36$$35$$35$7205759403792805333$35$$35$d33f)))))
(check-sat)
; SMT Says: Sat
(pop 1)
(pop 1)
(push 1)
(assert (and (not GHC.Types.False) GHC.Types.True (>= (apply$35$$35$0 (as len Int) x$35$$35$a1yg) 0) (= VV$35$$35$F$35$$35$181 i$35$$35$a1yh)))
(push 1)
(assert (not (and (<= 0 VV$35$$35$F$35$$35$181) (< VV$35$$35$F$35$$35$181 (apply$35$$35$0 (as len Int) x$35$$35$a1yg)))))
(check-sat)
; SMT Says: Sat
(pop 1)
(pop 1)
(push 1)
(assert (and (not GHC.Types.False) (>= (apply$35$$35$0 (as len Int) ds_d318) 0) GHC.Types.True (and (>= (apply$35$$35$0 (as len Int) lq_anf$36$$35$$35$7205759403792805367$35$$35$d33N) 0) (= lq_anf$36$$35$$35$7205759403792805367$35$$35$d33N ds_d318) (>= (apply$35$$35$0 (as len Int) lq_anf$36$$35$$35$7205759403792805367$35$$35$d33N) 0)) (and (>= (apply$35$$35$0 (as len Int) lq_anf$36$$35$$35$7205759403792805367$35$$35$d33N) 0) (= lq_anf$36$$35$$35$7205759403792805367$35$$35$d33N ds_d318) (>= (apply$35$$35$0 (as len Int) lq_anf$36$$35$$35$7205759403792805367$35$$35$d33N) 0) (>= (apply$35$$35$0 (as len Int) lq_anf$36$$35$$35$7205759403792805367$35$$35$d33N) 0)) (>= (apply$35$$35$0 (as len Int) lq_anf$36$$35$$35$7205759403792805372$35$$35$d33S) 0) (and (>= (apply$35$$35$0 (as len Int) lq_anf$36$$35$$35$7205759403792805367$35$$35$d33N) 0) (= lq_anf$36$$35$$35$7205759403792805367$35$$35$d33N ds_d318) (>= (apply$35$$35$0 (as len Int) lq_anf$36$$35$$35$7205759403792805367$35$$35$d33N) 0) (= (apply$35$$35$0 (as tail Int) lq_anf$36$$35$$35$7205759403792805367$35$$35$d33N) lq_anf$36$$35$$35$7205759403792805372$35$$35$d33S) (= (apply$35$$35$0 (as head Int) lq_anf$36$$35$$35$7205759403792805367$35$$35$d33N) lq_anf$36$$35$$35$7205759403792805371$35$$35$d33R) (= (apply$35$$35$0 (as len Int) lq_anf$36$$35$$35$7205759403792805367$35$$35$d33N) (+ 1 (apply$35$$35$0 (as len Int) lq_anf$36$$35$$35$7205759403792805372$35$$35$d33S))) (= lq_anf$36$$35$$35$7205759403792805367$35$$35$d33N (apply$35$$35$0 (apply$35$$35$0 (as GHC.Types.$58$ Int) lq_anf$36$$35$$35$7205759403792805371$35$$35$d33R) lq_anf$36$$35$$35$7205759403792805372$35$$35$d33S)) (= (apply$35$$35$0 (as tail Int) lq_anf$36$$35$$35$7205759403792805367$35$$35$d33N) lq_anf$36$$35$$35$7205759403792805372$35$$35$d33S) (= (apply$35$$35$0 (as head Int) lq_anf$36$$35$$35$7205759403792805367$35$$35$d33N) lq_anf$36$$35$$35$7205759403792805371$35$$35$d33R) (= (apply$35$$35$0 (as len Int) lq_anf$36$$35$$35$7205759403792805367$35$$35$d33N) (+ 1 (apply$35$$35$0 (as len Int) lq_anf$36$$35$$35$7205759403792805372$35$$35$d33S))) (>= (apply$35$$35$0 (as len Int) lq_anf$36$$35$$35$7205759403792805367$35$$35$d33N) 0)) (and (=> (>= ds_d317 0) (= (apply$35$$35$0 (as len Int) lq_anf$36$$35$$35$7205759403792805368$35$$35$d33O) (ite (< (apply$35$$35$0 (as len Int) ds_d318) ds_d317) (apply$35$$35$0 (as len Int) ds_d318) ds_d317))) (=> (not (>= ds_d317 0)) (= (apply$35$$35$0 (as len Int) lq_anf$36$$35$$35$7205759403792805368$35$$35$d33O) 0)) (>= (apply$35$$35$0 (as len Int) lq_anf$36$$35$$35$7205759403792805368$35$$35$d33O) 0)) (and (=> (>= ds_d317 0) (= (apply$35$$35$0 (as len Int) lq_anf$36$$35$$35$7205759403792805369$35$$35$d33P) (ite (< (apply$35$$35$0 (as len Int) ds_d318) ds_d317) 0 (- (apply$35$$35$0 (as len Int) ds_d318) ds_d317)))) (=> (not (>= ds_d317 0)) (= (apply$35$$35$0 (as len Int) lq_anf$36$$35$$35$7205759403792805369$35$$35$d33P) (apply$35$$35$0 (as len Int) ds_d318))) (>= (apply$35$$35$0 (as len Int) lq_anf$36$$35$$35$7205759403792805369$35$$35$d33P) 0)) (= VV$35$$35$F$35$$35$103 ds_d317)))
(push 1)
(assert (not (and (< VV$35$$35$F$35$$35$103 ds_d317) (>= VV$35$$35$F$35$$35$103 0))))
(check-sat)
; SMT Says: Sat
(pop 1)
(pop 1)
(push 1)
(assert (and (not GHC.Types.False) (= lq_anf$36$$35$$35$7205759403792805343$35$$35$d33p 0) (and (= VV$35$$35$F$35$$35$155 lq_anf$36$$35$$35$7205759403792805343$35$$35$d33p) (= VV$35$$35$F$35$$35$155 lq_anf$36$$35$$35$7205759403792805344$35$$35$d33q)) (= lq_anf$36$$35$$35$7205759403792805344$35$$35$d33q lq_anf$36$$35$$35$7205759403792805343$35$$35$d33p) GHC.Types.True (>= (apply$35$$35$0 (as len Int) x$35$$35$a1yr) 0) (and (>= lq_anf$36$$35$$35$7205759403792805342$35$$35$d33o 0) (= lq_anf$36$$35$$35$7205759403792805342$35$$35$d33o (apply$35$$35$0 (as len Int) x$35$$35$a1yr)))))
(push 1)
(assert (not (and (<= 0 VV$35$$35$F$35$$35$155) (< VV$35$$35$F$35$$35$155 (apply$35$$35$0 (as len Int) x$35$$35$a1yr)))))
(check-sat)
; SMT Says: Sat
(pop 1)
(pop 1)
(exit)
